(set-logic HORN)
(declare-datatypes ((Nat_0 0)) (((Z_1 ) (Z_2 (unS_0 Nat_0)))))
(declare-fun diseqNat_0 (Nat_0 Nat_0) Bool)
(declare-fun le_0 (Nat_0 Nat_0) Bool)
(declare-fun gt_0 (Nat_0 Nat_0) Bool)
(declare-datatypes ((list_0 0)) (((nil_0 ) (cons_0 (head_0 Nat_0) (tail_0 list_0)))))
(declare-fun diseqlist_0 (list_0 list_0) Bool)
(declare-fun merge_0 (list_0 list_0 list_0) Bool)
(assert (forall ((x_18 Nat_0))
	(diseqNat_0 Z_1 (Z_2 x_18))))
(assert (forall ((x_19 Nat_0))
	(diseqNat_0 (Z_2 x_19) Z_1)))
(assert (forall ((x_20 Nat_0) (x_21 Nat_0))
	(=> (diseqNat_0 x_20 x_21) (diseqNat_0 (Z_2 x_20) (Z_2 x_21)))))
(assert (forall ((y_2 Nat_0))
	(le_0 Z_1 y_2)))
(assert (forall ((x_13 Nat_0) (y_2 Nat_0))
	(=> (le_0 x_13 y_2) (le_0 (Z_2 x_13) (Z_2 y_2)))))
(assert (forall ((y_2 Nat_0))
	(gt_0 (Z_2 y_2) Z_1)))
(assert (forall ((x_13 Nat_0) (y_2 Nat_0))
	(=> (gt_0 x_13 y_2) (gt_0 (Z_2 x_13) (Z_2 y_2)))))
(assert (forall ((x_28 Nat_0) (x_29 list_0))
	(diseqlist_0 nil_0 (cons_0 x_28 x_29))))
(assert (forall ((x_30 Nat_0) (x_31 list_0))
	(diseqlist_0 (cons_0 x_30 x_31) nil_0)))
(assert (forall ((x_32 Nat_0) (x_33 list_0) (x_34 Nat_0) (x_35 list_0))
	(=> (diseqNat_0 x_32 x_34) (diseqlist_0 (cons_0 x_32 x_33) (cons_0 x_34 x_35)))))
(assert (forall ((x_32 Nat_0) (x_33 list_0) (x_34 Nat_0) (x_35 list_0))
	(=> (diseqlist_0 x_33 x_35) (diseqlist_0 (cons_0 x_32 x_33) (cons_0 x_34 x_35)))))
(assert (forall ((x_2 list_0) (y_1 Nat_0) (ys_0 list_0) (z_0 Nat_0) (xs_0 list_0))
	(=> (and (le_0 z_0 y_1) (merge_0 x_2 xs_0 (cons_0 y_1 ys_0))) (merge_0 (cons_0 z_0 x_2) (cons_0 z_0 xs_0) (cons_0 y_1 ys_0)))))
(assert (forall ((x_4 list_0) (y_1 Nat_0) (ys_0 list_0) (z_0 Nat_0) (xs_0 list_0))
	(=> (and (gt_0 z_0 y_1) (merge_0 x_4 (cons_0 z_0 xs_0) ys_0)) (merge_0 (cons_0 y_1 x_4) (cons_0 z_0 xs_0) (cons_0 y_1 ys_0)))))
(assert (forall ((z_0 Nat_0) (xs_0 list_0))
	(merge_0 (cons_0 z_0 xs_0) (cons_0 z_0 xs_0) nil_0)))
(assert (forall ((x_6 list_0))
	(merge_0 x_6 nil_0 x_6)))
(assert (forall ((x_11 list_0) (x_10 list_0) (x_7 list_0) (x_8 list_0) (xs_1 list_0) (ys_1 list_0) (zs_0 list_0))
	(=> (and (diseqlist_0 x_7 x_8) (merge_0 x_11 xs_1 ys_1) (merge_0 x_11 ys_1 xs_1) (merge_0 x_10 xs_1 zs_0) (merge_0 x_10 zs_0 xs_1) (merge_0 x_7 ys_1 zs_0) (merge_0 x_8 zs_0 ys_1)) false)))
(check-sat)
(get-model)
